<number of tasks>
20


<number of equipment>
5


<cycle time>
1000


<investment costs>
1,12336
2,19496
3,19156
4,26845
5,25601


<task times>
1,-1,-1,226,122,103
2,-1,-1,278,164,192
3,-1,-1,252,99,102
4,308,212,-1,-1,162
5,-1,-1,427,387,-1
6,-1,-1,210,120,-1
7,366,253,-1,-1,153
8,413,427,-1,-1,263
9,368,263,-1,-1,178
10,398,388,-1,-1,241
11,358,223,-1,-1,177
12,253,177,-1,-1,157
13,-1,-1,268,151,173
14,254,227,-1,-1,151
15,-1,-1,294,327,264
16,384,264,-1,-1,207
17,348,230,-1,-1,164
18,-1,-1,345,185,325
19,-1,-1,268,170,-1
20,-1,-1,141,124,143


<precedence relations>
1,4
1,5
1,6
2,3
2,7
4,9
5,8
6,9
7,11
7,12
7,13
7,14
8,11
8,13
8,14
9,10
9,12
10,15
10,16
11,16
11,17
12,15
12,17
13,20
15,20
16,18
16,19


<task types>
1,2
2,2
3,2
4,3
5,1
6,1
7,3
8,3
9,3
10,3
11,3
12,3
13,2
14,3
15,2
16,3
17,3
18,2
19,1
20,2


<line depot>
1,0
2,0
3,3
4,0
5,3


<processing costs>
1,7200
2,7200
3,14400
4,14400
5,14400


<saving costs>
1,1233
2,1949
3,1915
4,2684
5,2560


<end>
